WARNING: for repeatability, setting FPU to use double precision
============================[ Problem Statistics ]=============================
|                                                                             |
|  Number of variables:        670867                                         |
|  Number of clauses:         3145698                                         |
|  Parse time:                   0.66 s                                       |
|                                                                             |
c ============================[ Search Statistics ]==============================
c | Conflicts |          ORIGINAL         |          LEARNT          | Progress |
c |           |    Vars  Clauses Literals |    Limit  Clauses Lit/Cl |          |
c ===============================================================================
We had 13 decisions of which only 0 were on extended
We had 1033848 decisions of which only 0 were on extended
c Switched to VSIDS.
c Switched to LRB.
c Switched to VSIDS.
We had 1916800 decisions of which only 0 were on extended
c Switched to LRB.
We had 2568598 decisions of which only 0 were on extended
c Switched to VSIDS.
c Switched to LRB.
We had 3498505 decisions of which only 0 were on extended
c Switched to VSIDS.
We had 4044361 decisions of which only 0 were on extended
c Switched to LRB.
We had 4074686 decisions of which only 0 were on extended
We had 4101109 decisions of which only 0 were on extended
We had 4119602 decisions of which only 0 were on extended
c Switched to VSIDS.
We had 4137924 decisions of which only 0 were on extended
We had 4162040 decisions of which only 0 were on extended
c Switched to LRB.
We had 4196605 decisions of which only 0 were on extended
We had 4217494 decisions of which only 0 were on extended
c Switched to VSIDS.
We had 4239883 decisions of which only 0 were on extended
c Switched to LRB.
We had 4272260 decisions of which only 0 were on extended
We had 4306305 decisions of which only 0 were on extended
We had 4329958 decisions of which only 0 were on extended
We had 4344557 decisions of which only 0 were on extended
c Switched to VSIDS.
We had 4363778 decisions of which only 0 were on extended
Window full
Continue
We had 4383394 decisions of which only 9.12535e-05 were on extended
c Switched to LRB.
We had 4403319 decisions of which only 9.08406e-05 were on extended
We had 4421902 decisions of which only 9.04588e-05 were on extended
c Switched to VSIDS.
We had 4439138 decisions of which only 9.01076e-05 were on extended
We had 4457601 decisions of which only 8.97344e-05 were on extended
c Switched to LRB.
We had 4476809 decisions of which only 8.93494e-05 were on extended
We had 4493023 decisions of which only 8.90269e-05 were on extended
We had 4507153 decisions of which only 8.87478e-05 were on extended
c Switched to VSIDS.
We had 4525098 decisions of which only 8.83959e-05 were on extended
We had 4542081 decisions of which only 8.80654e-05 were on extended
Window full
Deactivate
We had 4559443 decisions of which only 8.773e-05 were on extended
c Switched to LRB.
We had 4576941 decisions of which only 8.73946e-05 were on extended
We had 4592666 decisions of which only 8.70954e-05 were on extended
We had 4607458 decisions of which only 8.68158e-05 were on extended
We had 4621425 decisions of which only 8.65534e-05 were on extended
We had 4635120 decisions of which only 8.62977e-05 were on extended
We had 4648394 decisions of which only 8.60512e-05 were on extended
We had 4661919 decisions of which only 8.58016e-05 were on extended
c Switched to VSIDS.
We had 4676547 decisions of which only 8.55332e-05 were on extended
c Switched to LRB.
We had 4692367 decisions of which only 0.000106556 were on extended
c ===============================================================================
restarts                  : 1364
conflicts                 : 384547         (244 /sec)
decisions                 : 4698653        (0.00 % random) (2986 /sec)
propagations              : 1880485950     (1195013 /sec)
conflict literals         : 12412047       (31.28 % deleted)

conflicts w/ DIP found    : 209192         (54.40 % of conflicts)
conflicts w/ dangerous DIP: 0              (0.00 % of conflicts)
conflicts w/ DIP-learning : 2              (0.00 % of conflicts)
decisions on ext vars     : 5              (0.00 % of decisions)
total ext vars            : 2           
tried delete ext vars     : 0           
deleted ext vars          : 0           
max ext vars              : 2           

Memory used               : 522.00 MB
CPU time                  : 1573.61 s
DIP computation time      : 3.02584 s (0.19 % of total time)
ER_sel time               : 0.482017 s
ER_add time               : 0.000171 s
ER_delC time              : 0 s
ER_delV time              : 0 s
ER_sub time               : 0.443001 s
ER_stat time              : 0 s

UNSATISFIABLE
